p cnf 463 817               
-37 127 0
-31 121 0
-25 115 0
-19 109 0
-13 103 0
-1 97 0
-7 97 0
1 7 -97 0
-97 103 0
13 97 -103 0
-103 109 0
19 103 -109 0
-109 115 0
25 109 -115 0
-115 121 0
31 115 -121 0
-121 127 0
37 121 -127 0
127 161 0
-38 128 0
-32 122 0
-26 116 0
-20 110 0
-14 104 0
-2 98 0
-8 98 0
2 8 -98 0
-98 104 0
14 98 -104 0
-104 110 0
20 104 -110 0
-110 116 0
26 110 -116 0
-116 122 0
32 116 -122 0
-122 128 0
38 122 -128 0
128 133 0
127 133 0
-128 -127 -133 0
133 -143 0
-127 134 0
-128 134 0
127 128 -134 0
134 135 0
-39 129 0
-33 123 0
-27 117 0
-21 111 0
-15 105 0
-3 99 0
-9 99 0
3 9 -99 0
-99 105 0
15 99 -105 0
-105 111 0
21 105 -111 0
-111 117 0
27 111 -117 0
-117 123 0
33 117 -123 0
-123 129 0
39 123 -129 0
129 135 0
-134 -129 -135 0
135 -143 0
-129 136 0
-134 136 0
129 134 -136 0
136 137 0
-40 130 0
-34 124 0
-28 118 0
-22 112 0
-16 106 0
-4 100 0
-10 100 0
4 10 -100 0
-100 106 0
16 100 -106 0
-106 112 0
22 106 -112 0
-112 118 0
28 112 -118 0
-118 124 0
34 118 -124 0
-124 130 0
40 124 -130 0
130 137 0
-136 -130 -137 0
137 -143 0
-130 138 0
-136 138 0
130 136 -138 0
138 139 0
-41 131 0
-35 125 0
-29 119 0
-23 113 0
-17 107 0
-5 101 0
-11 101 0
5 11 -101 0
-101 107 0
17 101 -107 0
-107 113 0
23 107 -113 0
-113 119 0
29 113 -119 0
-119 125 0
35 119 -125 0
-125 131 0
41 125 -131 0
131 139 0
-138 -131 -139 0
139 -143 0
-131 140 0
-138 140 0
131 138 -140 0
140 141 0
-42 132 0
-36 126 0
-30 120 0
-24 114 0
-18 108 0
-6 102 0
-12 102 0
6 12 -102 0
-102 108 0
18 102 -108 0
-108 114 0
24 108 -114 0
-114 120 0
30 114 -120 0
-120 126 0
36 120 -126 0
-126 132 0
42 126 -132 0
132 141 0
-140 -132 -141 0
141 -143 0
-132 142 0
-140 142 0
132 140 -142 0
142 -143 0
-133 -135 -137 -139 -141 -142 143 0
-143 -127 155 0
143 -43 155 0
-127 -43 155 0
-155 161 0
128 162 0
-143 -128 156 0
143 -44 156 0
-128 -44 156 0
-156 162 0
129 163 0
-143 -129 157 0
143 -45 157 0
-129 -45 157 0
-157 163 0
130 164 0
-143 -130 158 0
143 -46 158 0
-130 -46 158 0
-158 164 0
131 165 0
-143 -131 159 0
143 -47 159 0
-131 -47 159 0
-159 165 0
132 166 0
-143 -132 160 0
143 -48 160 0
-132 -48 160 0
-160 166 0
-161 -162 -163 -164 -165 -166 167 0
-167 -168 0
-12 58 0
-11 57 0
-10 56 0
-9 55 0
-7 54 0
-8 54 0
7 8 -54 0
-54 55 0
9 54 -55 0
-55 56 0
10 55 -56 0
-56 57 0
11 56 -57 0
-57 58 0
12 57 -58 0
-6 53 0
-5 52 0
-4 51 0
-3 50 0
-1 49 0
-2 49 0
1 2 -49 0
-49 50 0
3 49 -50 0
-50 51 0
4 50 -51 0
-51 52 0
5 51 -52 0
-52 53 0
6 52 -53 0
-58 -53 -84 0
84 -96 0
-53 85 0
-58 85 0
53 58 -85 0
-18 63 0
-17 62 0
-16 61 0
-15 60 0
-13 59 0
-14 59 0
13 14 -59 0
-59 60 0
15 59 -60 0
-60 61 0
16 60 -61 0
-61 62 0
17 61 -62 0
-62 63 0
18 62 -63 0
-85 -63 -86 0
86 -96 0
-63 87 0
-85 87 0
63 85 -87 0
-24 68 0
-23 67 0
-22 66 0
-21 65 0
-19 64 0
-20 64 0
19 20 -64 0
-64 65 0
21 64 -65 0
-65 66 0
22 65 -66 0
-66 67 0
23 66 -67 0
-67 68 0
24 67 -68 0
-87 -68 -88 0
88 -96 0
-68 89 0
-87 89 0
68 87 -89 0
-30 73 0
-29 72 0
-28 71 0
-27 70 0
-25 69 0
-26 69 0
25 26 -69 0
-69 70 0
27 69 -70 0
-70 71 0
28 70 -71 0
-71 72 0
29 71 -72 0
-72 73 0
30 72 -73 0
-89 -73 -90 0
90 -96 0
-73 91 0
-89 91 0
73 89 -91 0
-36 78 0
-35 77 0
-34 76 0
-33 75 0
-31 74 0
-32 74 0
31 32 -74 0
-74 75 0
33 74 -75 0
-75 76 0
34 75 -76 0
-76 77 0
35 76 -77 0
-77 78 0
36 77 -78 0
-91 -78 -92 0
92 -96 0
-78 93 0
-91 93 0
78 91 -93 0
-42 83 0
-41 82 0
-40 81 0
-39 80 0
-37 79 0
-38 79 0
37 38 -79 0
-79 80 0
39 79 -80 0
-80 81 0
40 80 -81 0
-81 82 0
41 81 -82 0
-82 83 0
42 82 -83 0
-93 -83 -94 0
94 -96 0
83 93 -95 0
95 -96 0
96 -168 0
143 -168 0
-44 -43 -144 0
144 -154 0
-43 145 0
-44 145 0
43 44 -145 0
-145 -45 -146 0
146 -154 0
-45 147 0
-145 147 0
45 145 -147 0
-147 -46 -148 0
148 -154 0
-46 149 0
-147 149 0
46 147 -149 0
-149 -47 -150 0
150 -154 0
-47 151 0
-149 151 0
47 149 -151 0
-151 -48 -152 0
152 -154 0
48 151 -153 0
153 -154 0
154 -168 0
-1 7 -169 0
169 -191 0
-1 -7 170 0
1 7 170 0
-7 7 170 0
-2 8 -171 0
-170 171 -172 0
172 -191 0
-2 -8 173 0
2 8 173 0
-8 8 173 0
-170 -173 174 0
-3 9 -175 0
-174 175 -176 0
176 -191 0
-3 -9 177 0
3 9 177 0
-9 9 177 0
-174 -177 178 0
-4 10 -179 0
-178 179 -180 0
180 -191 0
-4 -10 181 0
4 10 181 0
-10 10 181 0
-178 -181 182 0
-5 11 -183 0
-182 183 -184 0
184 -191 0
-5 -11 185 0
5 11 185 0
-11 11 185 0
-182 -185 186 0
-6 12 -187 0
-186 187 -188 0
188 -191 0
191 -462 0
-7 13 -192 0
192 -214 0
-7 -13 193 0
7 13 193 0
-13 13 193 0
-8 14 -194 0
-193 194 -195 0
195 -214 0
-8 -14 196 0
8 14 196 0
-14 14 196 0
-193 -196 197 0
-9 15 -198 0
-197 198 -199 0
199 -214 0
-9 -15 200 0
9 15 200 0
-15 15 200 0
-197 -200 201 0
-10 16 -202 0
-201 202 -203 0
203 -214 0
-10 -16 204 0
10 16 204 0
-16 16 204 0
-201 -204 205 0
-11 17 -206 0
-205 206 -207 0
207 -214 0
-11 -17 208 0
11 17 208 0
-17 17 208 0
-205 -208 209 0
-12 18 -210 0
-209 210 -211 0
211 -214 0
214 -462 0
-13 19 -215 0
215 -237 0
-13 -19 216 0
13 19 216 0
-19 19 216 0
-14 20 -217 0
-216 217 -218 0
218 -237 0
-14 -20 219 0
14 20 219 0
-20 20 219 0
-216 -219 220 0
-15 21 -221 0
-220 221 -222 0
222 -237 0
-15 -21 223 0
15 21 223 0
-21 21 223 0
-220 -223 224 0
-16 22 -225 0
-224 225 -226 0
226 -237 0
-16 -22 227 0
16 22 227 0
-22 22 227 0
-224 -227 228 0
-17 23 -229 0
-228 229 -230 0
230 -237 0
-17 -23 231 0
17 23 231 0
-23 23 231 0
-228 -231 232 0
-18 24 -233 0
-232 233 -234 0
234 -237 0
237 -462 0
-19 25 -238 0
238 -260 0
-19 -25 239 0
19 25 239 0
-25 25 239 0
-20 26 -240 0
-239 240 -241 0
241 -260 0
-20 -26 242 0
20 26 242 0
-26 26 242 0
-239 -242 243 0
-21 27 -244 0
-243 244 -245 0
245 -260 0
-21 -27 246 0
21 27 246 0
-27 27 246 0
-243 -246 247 0
-22 28 -248 0
-247 248 -249 0
249 -260 0
-22 -28 250 0
22 28 250 0
-28 28 250 0
-247 -250 251 0
-23 29 -252 0
-251 252 -253 0
253 -260 0
-23 -29 254 0
23 29 254 0
-29 29 254 0
-251 -254 255 0
-24 30 -256 0
-255 256 -257 0
257 -260 0
260 -462 0
-25 31 -261 0
261 -283 0
-25 -31 262 0
25 31 262 0
-31 31 262 0
-26 32 -263 0
-262 263 -264 0
264 -283 0
-26 -32 265 0
26 32 265 0
-32 32 265 0
-262 -265 266 0
-27 33 -267 0
-266 267 -268 0
268 -283 0
-27 -33 269 0
27 33 269 0
-33 33 269 0
-266 -269 270 0
-28 34 -271 0
-270 271 -272 0
272 -283 0
-28 -34 273 0
28 34 273 0
-34 34 273 0
-270 -273 274 0
-29 35 -275 0
-274 275 -276 0
276 -283 0
-29 -35 277 0
29 35 277 0
-35 35 277 0
-274 -277 278 0
-30 36 -279 0
-278 279 -280 0
280 -283 0
283 -462 0
-31 37 -284 0
284 -306 0
-31 -37 285 0
31 37 285 0
-37 37 285 0
-32 38 -286 0
-285 286 -287 0
287 -306 0
-32 -38 288 0
32 38 288 0
-38 38 288 0
-285 -288 289 0
-33 39 -290 0
-289 290 -291 0
291 -306 0
-33 -39 292 0
33 39 292 0
-39 39 292 0
-289 -292 293 0
-34 40 -294 0
-293 294 -295 0
295 -306 0
-34 -40 296 0
34 40 296 0
-40 40 296 0
-293 -296 297 0
-35 41 -298 0
-297 298 -299 0
299 -306 0
-35 -41 300 0
35 41 300 0
-41 41 300 0
-297 -300 301 0
-36 42 -302 0
-301 302 -303 0
303 -306 0
306 -462 0
-43 44 -307 0
307 -337 0
-43 -44 308 0
43 44 308 0
-44 44 308 0
-1 2 -309 0
-308 309 -310 0
310 -337 0
-1 -2 311 0
1 2 311 0
-2 2 311 0
-308 -311 312 0
-7 8 -313 0
-312 313 -314 0
314 -337 0
-7 -8 315 0
7 8 315 0
-8 8 315 0
-312 -315 316 0
-13 14 -317 0
-316 317 -318 0
318 -337 0
-13 -14 319 0
13 14 319 0
-14 14 319 0
-316 -319 320 0
-19 20 -321 0
-320 321 -322 0
322 -337 0
-19 -20 323 0
19 20 323 0
-20 20 323 0
-320 -323 324 0
-25 26 -325 0
-324 325 -326 0
326 -337 0
-25 -26 327 0
25 26 327 0
-26 26 327 0
-324 -327 328 0
-31 32 -329 0
-328 329 -330 0
330 -337 0
-31 -32 331 0
31 32 331 0
-32 32 331 0
-328 -331 332 0
-37 38 -333 0
-332 333 -334 0
334 -337 0
337 -462 0
-44 45 -338 0
338 -368 0
-44 -45 339 0
44 45 339 0
-45 45 339 0
-2 3 -340 0
-339 340 -341 0
341 -368 0
-2 -3 342 0
2 3 342 0
-3 3 342 0
-339 -342 343 0
-8 9 -344 0
-343 344 -345 0
345 -368 0
-8 -9 346 0
8 9 346 0
-9 9 346 0
-343 -346 347 0
-14 15 -348 0
-347 348 -349 0
349 -368 0
-14 -15 350 0
14 15 350 0
-15 15 350 0
-347 -350 351 0
-20 21 -352 0
-351 352 -353 0
353 -368 0
-20 -21 354 0
20 21 354 0
-21 21 354 0
-351 -354 355 0
-26 27 -356 0
-355 356 -357 0
357 -368 0
-26 -27 358 0
26 27 358 0
-27 27 358 0
-355 -358 359 0
-32 33 -360 0
-359 360 -361 0
361 -368 0
-32 -33 362 0
32 33 362 0
-33 33 362 0
-359 -362 363 0
-38 39 -364 0
-363 364 -365 0
365 -368 0
368 -462 0
-45 46 -369 0
369 -399 0
-45 -46 370 0
45 46 370 0
-46 46 370 0
-3 4 -371 0
-370 371 -372 0
372 -399 0
-3 -4 373 0
3 4 373 0
-4 4 373 0
-370 -373 374 0
-9 10 -375 0
-374 375 -376 0
376 -399 0
-9 -10 377 0
9 10 377 0
-10 10 377 0
-374 -377 378 0
-15 16 -379 0
-378 379 -380 0
380 -399 0
-15 -16 381 0
15 16 381 0
-16 16 381 0
-378 -381 382 0
-21 22 -383 0
-382 383 -384 0
384 -399 0
-21 -22 385 0
21 22 385 0
-22 22 385 0
-382 -385 386 0
-27 28 -387 0
-386 387 -388 0
388 -399 0
-27 -28 389 0
27 28 389 0
-28 28 389 0
-386 -389 390 0
-33 34 -391 0
-390 391 -392 0
392 -399 0
-33 -34 393 0
33 34 393 0
-34 34 393 0
-390 -393 394 0
-39 40 -395 0
-394 395 -396 0
396 -399 0
399 -462 0
-46 47 -400 0
400 -430 0
-46 -47 401 0
46 47 401 0
-47 47 401 0
-4 5 -402 0
-401 402 -403 0
403 -430 0
-4 -5 404 0
4 5 404 0
-5 5 404 0
-401 -404 405 0
-10 11 -406 0
-405 406 -407 0
407 -430 0
-10 -11 408 0
10 11 408 0
-11 11 408 0
-405 -408 409 0
-16 17 -410 0
-409 410 -411 0
411 -430 0
-16 -17 412 0
16 17 412 0
-17 17 412 0
-409 -412 413 0
-22 23 -414 0
-413 414 -415 0
415 -430 0
-22 -23 416 0
22 23 416 0
-23 23 416 0
-413 -416 417 0
-28 29 -418 0
-417 418 -419 0
419 -430 0
-28 -29 420 0
28 29 420 0
-29 29 420 0
-417 -420 421 0
-34 35 -422 0
-421 422 -423 0
423 -430 0
-34 -35 424 0
34 35 424 0
-35 35 424 0
-421 -424 425 0
-40 41 -426 0
-425 426 -427 0
427 -430 0
430 -462 0
-47 48 -431 0
431 -461 0
-47 -48 432 0
47 48 432 0
-48 48 432 0
-5 6 -433 0
-432 433 -434 0
434 -461 0
-5 -6 435 0
5 6 435 0
-6 6 435 0
-432 -435 436 0
-11 12 -437 0
-436 437 -438 0
438 -461 0
-11 -12 439 0
11 12 439 0
-12 12 439 0
-436 -439 440 0
-17 18 -441 0
-440 441 -442 0
442 -461 0
-17 -18 443 0
17 18 443 0
-18 18 443 0
-440 -443 444 0
-23 24 -445 0
-444 445 -446 0
446 -461 0
-23 -24 447 0
23 24 447 0
-24 24 447 0
-444 -447 448 0
-29 30 -449 0
-448 449 -450 0
450 -461 0
-29 -30 451 0
29 30 451 0
-30 30 451 0
-448 -451 452 0
-35 36 -453 0
-452 453 -454 0
454 -461 0
-35 -36 455 0
35 36 455 0
-36 36 455 0
-452 -455 456 0
-41 42 -457 0
-456 457 -458 0
458 -461 0
461 -462 0
168 0
462 0
